c description: Random 3-CNF over 17 variables and 72 clauses
c generator: CNFgen (0.9.2)
c copyright: (C) 2012-2022 Massimo Lauria <massimo.lauria@uniroma1.it>
c url: https://massimolauria.net/cnfgen
c command line: cnfgen --output CNF_4.28/17_bit_72_800.cnf randkcnf 3 17 72
c
p cnf 17 72
5 -6 -13 0
-9 15 -17 0
-4 9 -16 0
-2 -9 12 0
13 -14 15 0
3 11 13 0
-1 6 -7 0
-4 13 17 0
-6 -8 -12 0
12 -13 -17 0
4 6 14 0
-3 4 9 0
2 -13 -14 0
1 7 -10 0
-10 -11 12 0
-14 16 17 0
8 -10 11 0
2 -5 15 0
-1 -13 14 0
-1 11 17 0
4 11 -12 0
-8 -9 -12 0
10 14 15 0
4 -7 17 0
-2 -4 -16 0
9 -11 13 0
5 -7 -8 0
9 12 -16 0
4 -15 -17 0
-1 -10 12 0
1 12 -14 0
4 -12 -15 0
-2 -7 -8 0
2 -15 16 0
2 4 9 0
2 -4 11 0
-1 10 14 0
-4 -12 13 0
3 -7 -11 0
-9 -14 17 0
2 -11 15 0
3 -5 -17 0
-1 16 -17 0
2 -6 8 0
-3 4 12 0
2 4 -6 0
5 -9 -10 0
-2 15 17 0
2 -5 11 0
-5 11 -16 0
6 10 -17 0
-2 -5 11 0
-3 -11 12 0
-4 6 16 0
7 -13 -14 0
-5 6 -16 0
-7 14 -15 0
6 9 -17 0
1 -5 -8 0
5 -6 17 0
-2 -10 11 0
1 -3 17 0
-5 6 11 0
-3 -10 -14 0
-1 -10 13 0
3 4 -5 0
-3 -8 -13 0
-1 2 -7 0
-4 -13 14 0
-5 -7 12 0
3 13 -17 0
8 11 -17 0
